
 102   30
  10   10   10   10   10   10   10   10   10   10   10   10   10   10   10   10   10   10   10   10   10   10   10   10   10   10   10   10   10   10

   0   0   0   0   0   0   0   0   0   0   0   0   0   0   0   0   0   0   0   0   0   0   0   0   0   0   0   0   0   0   0  22 2 3 4 5 6 7 8 9 10 11 12 13 14 15 16 17 19 20 21 23 26 27 
   2   0   0   0   0   0   3   0   0   0   0   3   0   0   0   0   0   0   0   0   0   0   1   0   0   0   0   0   0   0   0  17 101 72 68 64 63 55 52 51 47 45 44 40 39 38 35 33 31 
   3   0   0   0   0   0   0   0   0   0   0   0   0   0   0   0   0   0   0   0   0   0   0   2   0   1   0   0   0   0   0  14 60 59 53 52 48 46 41 39 38 36 35 33 28 24 
   2   0   0   5   0   0   0   0   2   1   0   4   0   0   0   0   0   0   0   0   0   0   0   0   0   5   0   0   0   0   0  17 80 72 71 66 64 63 57 56 54 53 51 50 47 42 37 30 29 
   7   0   0   0   0   0   0   0   0   0   0   0   0   0   0   3   0   0   0   0   0   0   0   0   0   0   0   0   0   1   0  20 101 99 96 71 69 68 66 64 62 61 59 58 55 54 53 52 49 47 41 40 
  10   0   0   0   1   0   0   0   0   0   0   8   0   0   0   0   0   0   0   0   0   1   0   0   0   0   0   0   0   0   0  14 98 80 61 54 53 52 51 50 47 46 45 38 32 29 
   5   0   0   0   0   0   0   0   0   0   0   0   0   0   0   0   0   0   0   0   0   0   0   0   0   0   0   0   1   0   0  11 101 72 71 55 54 52 46 40 34 30 22 
   2   0   0   0   0   1   0   2   0   0   0   0   0   0   0   0   0   0   0   0   0   0   0   0   0   0   2   0   3   0   0  11 100 97 79 71 69 67 59 56 43 40 18 
   2   0   1   0   0   0   0   0   0   0   0   8   0   0   0   0   0   0   0   0   0   0   0   0   1   0   0   0   0   4   0  17 100 99 97 96 68 67 66 63 62 60 59 58 54 53 48 40 34 
   8   0   0   0   0   0   0   0   0   0   0   0   0   0   0   0   0   0   0   0   1   0   0   4   0   4   0   0   0   0   0  14 101 98 95 78 71 68 65 63 62 58 54 47 45 31 
   6   0   0   0   0   0   0   7   0   0   0   0   0   0   0   0   0   0   0   0   0   0   0  10   0   5   0   0   0   0   0  10 100 98 78 71 68 67 65 47 39 34 
   8   0   7   0   0   0   0   0   0   0   0   0   1   0   0   0   0   0   1   0   0   0   0   0   0   0   0   0   0   0   3   7 78 71 60 56 52 41 25 
   7   3   0   0   0   0   0   0   0   0   0   3   0   0   0   0   0   0   0   0   0   0   0   0   0   0   0   0   0   5   0  15 99 98 96 76 72 71 70 67 65 61 57 52 51 50 47 
   7   0   7   0   0   0   0   0   0   0   0   0   7   0   0   8   0   1   0   0   0   7   0   0   0   0   0   0   0   0   0  11 99 96 78 67 66 62 59 58 53 42 34 
  10   0   0   0   0   0   0   0   7   0   0   0   5   0   0   9   0   5   0   0   0   0   0   0   0   8   0   0   0   0   0  11 101 95 90 79 78 69 68 67 45 41 39 
   2   0   0   0   0   0   0   0   3   0   1   0   0   0   0   0   0   0   0   0   0   0   0   0   0   0   0   0   9   0   5  12 101 99 97 79 77 63 61 58 55 53 51 50 
   2   0   0   0   0   0   0   0   0   0   9   0   0   0   0   0   0   0   0   0   0   0   0   0   0   0   0   0   0   0   0  16 99 98 96 95 91 87 80 77 76 70 67 65 59 57 51 47 
   3   0   0   0   0   0   0   5   0   0   0   0   0   1   1   0   0   0   0   0   6   0   0   0   0   0   0   0   0   0   0  14 99 98 96 78 77 70 68 66 63 61 58 57 53 50 
  10   0   0   0   0   0   6   0   0   0   0   0   0   0   0   0   0   0   0   0   0   0   0   0   6   0   0   0   8   0   0  14 101 94 93 90 89 80 77 72 69 68 67 65 62 39 
   8   0   0   0   0   0   0   0   0   0   0   0   8   0   4   0   0   5   0   0   0   0   0   6   0   0   0   3   0   0   0  13 98 97 89 80 79 69 65 59 58 56 52 50 45 
   6   8   0   0   0   0   3   0   0   0   0   0   5   0   0   4   0   0   0   0   0   0   0   4   0   6   0   0   0   0   0  18 98 97 95 93 92 90 86 80 79 78 77 70 69 67 63 62 58 57 
   4   3   0   0   0   0   0   0   0   0   0   0   0   0   0   0   0   0   0   0   0   0   0   0   0   0   0   0   6   0   0  14 97 96 95 84 79 77 76 69 68 67 65 63 61 50 
   3   0   0   0   6   0   0   0   0  10   9   0   0   0   0   0   2   7   0   0   0   0   5   0   0   0   0   6   7   2   0  12 98 96 87 78 71 70 69 64 58 54 52 50 
   3   0   0   0   0   0   0   0   0   3   5   0   0   0   0   0   0   0   0   0   5   0  10   0   0   0   0   0   0   0   0   7 99 98 97 84 71 65 34 
   4   0   0   0   0   0   0   8   0   3   5   0   8   0   0   0   0   0   4   0   0   0   0   4   0   0   0   0   0   0   0  22 100 99 98 97 96 95 93 92 91 90 89 87 86 85 79 77 76 75 73 72 69 67 
   4   0   0   0   0   0   0   7   5   7   0   0   0   0   0   0   0   0   0   1   0   6   0   0   0   0   0   0   6   0   8  19 101 98 97 96 95 94 93 91 90 87 80 79 77 76 75 73 70 69 65 
   6   0   0   0   0   0   0   0   0   9   0   0   0   0   0   7   0   0   0   0   0   0   0   0   0   0   0   0   6   0   0  12 101 97 95 90 88 79 78 77 71 68 65 45 
   6   0   0   0   0   0   6   0   0   0   0   6   0   0   0   8   0   0   0   8   0   0   0   0   0   0   0   0   6   0   0  15 100 99 98 95 90 87 85 77 76 75 73 72 71 69 63 
   6   0   0   4   0   0   0   0   0   0   0   0   0   0   0   0   0   0   0   0   0   0   9   0   0   0   0   0   8   0   0  14 101 97 96 93 90 88 84 78 77 76 67 65 62 59 
   2   5   0   0   0   7   7   5   0   0   0   3   0   0   0  10   0   0   0   0   0   0   0   0   6   0   0   0   6   0   0  11 99 98 97 93 90 84 78 77 62 61 58 
   6   0   0   0   0   0   0   0   0   0   7  10   0   0   0   9   0   0   0   0   0   0   0   0   0   0   0   0   0   0   0  15 100 99 97 93 91 90 87 86 85 84 79 76 70 69 59 
   9   5   6   0   6   0   7   0   0   4   0   0   0   0   0   0   0   0   0  10   0   0   0   0   0   0   0   0   3   0   6  13 100 96 94 92 90 89 85 79 76 73 72 62 60 
   4   0   0   0   0   0   0   0   0   0   0   0   0   0   0   4   0   0   0   0   0   0   0   0   0   0   0   0   0   9   0  12 100 98 95 92 90 88 77 73 71 70 61 57 
   5   5   0   0   0   0   3   0   0   0   0   0   0   0   0   2   0   0   7   0   0   0   0   0   0   0   0   0   0   0   0  11 95 92 91 87 86 77 76 73 70 69 50 
  10   8   0   0   0   0   7  10   0   0   0   0   0   3   0   0   7   0   0   0   0   0   0   0   8   0   0   0   0   0   7  11 96 90 88 86 80 79 78 76 73 65 62 
  10   0   3   6   0   6   0   0   0   0   4   0   0   0   0   0   0   0   0   0   0   5   6   0   0   0   0   0   0   0   0  13 95 94 93 92 91 88 85 78 77 76 73 67 62 
   1   0   0   0   0   0   0   0   6   6   0   0   0   0   0   0   0   0   0   0   0   0   0   0   0   0   0   0   0   0   0  10 98 92 90 89 87 85 84 75 67 58 
   3   0   0   0   0   0   0   0   0   0   0   0   0   0   0   0   0   0   0   0   0   8   9   0   0   0   0   0   0  10   0  11 99 96 91 90 87 86 84 76 75 69 67 
   1   0   8   0   0   0   0   0   5   0   0   0   0   0   0   0   0   0   0   0   0   0   0   0   0   0   0   0   6   0   0   9 99 97 96 87 86 85 84 82 58 
   8   0   6   0   0   0   0   0   0   0   0   5   0   0   0   0  10   0   0   0   0   0   0   0   0   0   0   4   0   0   0   8 98 95 92 88 78 77 75 57 
   1   0   0   0   0   0   0   0   0   0   0   0   0   0   0   0   6   0   0   0   0   0   0   0   0   0   0   0   0   0   6  11 100 98 94 92 87 86 85 83 82 80 73 
   2   0   0   0   0   0   0   0   0   0   0   0   0   0   0   0   0   0   0   0   0   0   0   0   0   0   7   0   0   0   0  10 95 94 92 90 88 86 84 76 75 73 
   8   0   0   0   0   0   0   0   0   0   0   0   0   0   0   0   0   0   0   0   5   0   0  10   0   0   0   0  10   0   0   8 99 94 93 90 82 80 76 65 
   7   0   0   0   8   0   0   0   0   0   0   0   0   8   0   0   6   0   0   0   0   0   0   0   0   0   0   0   6   5   0   7 94 93 90 84 82 71 58 
   6   0   0   0   0   0   0   0   0   0   0   8   0   0   0   0   7   0   0   0   0   0   0   0   0   0   0   0   0   0   0  10 96 93 92 91 87 85 84 83 75 74 
   8   0   4   0   0   0   0   0   0   8   0   0   0   0   0   0   0   0   0   0   0   0   4   0   0   0   0   0   7   0   0   8 90 89 88 87 84 79 76 73 
   8   0   0   0   2   0   0   0   0   0   0   0   0   0   5   0   0   0   0   0   0   0   0   0   9   0   0   0   5   8   0   8 97 94 89 86 85 83 75 73 
   7   8   0   6   6   0   9   0   6   0   0   0   0   0   0   0   0   0   0   0   0   0   0   0   0   0   8   0   9   0   0   8 95 93 88 86 84 82 76 73 
   2   0   0   0   4   0   0   0   0   0   0   0   0   0   0   0   0   5   0   0   0   0   0   0   0   0   0   0   0   0   0   8 94 93 90 88 85 83 81 75 
   5   0   0   0   0   0   0   8   0   0   6   0   0   0   0   4   0   0   0   0   0   0   0   0   0   0   0   0   5   0   4   7 94 93 90 85 83 75 74 
   3   0   0   0   0   5   0   0   8   0   0   5   0   5   0   0   0   0   0   0   0   0   0   0   0   0   0   0   5   0   0   5 90 86 83 73 69 
   5   0   0   5   9   0   0   0   0   0   0   0   0   0   0   0   0   0   0   0   0   0   0   0   0   5   0   0   0   0   0   6 95 91 88 86 82 73 
  10   0   6   0   0   0   0   0   0   0   0   0   0   8   0   0   0   0   0   0   4   0   0   0   0   7   0   0   0   0   5   4 87 83 82 65 
   6   0   0   0  10   0   0   0   0   0   0   0   0   0   0   0   5   0   0   0   0   0   0   0   0   0   0   0   0   0   0   4 91 84 79 73 
   8   0   0   0   8   0   0   2   0   0   0   0   0   0   0   0   0   0   0   0   0   5   0   0   0   0   0   0   0   0   0   4 84 78 75 74 
   6  10   0   0   0   0   0   0   0   0   0   8   0   0   0   8   0   0   0   0   0   0   0   0   0   0   0   0   0   0   0   4 84 83 75 73 
   2   0   0   0   8   0   5   0   0   0   0   0   0   0   0   0   0   0   0   0   0   0   0   5   0   0   0   0   0   0   0   5 85 84 83 82 74 
   6   0   0   0   0   0   0   0   8   0   0   7   0   0   0   5   0   0   0   0   0   0   0   0   0   0   0   0   0   0   0   3 91 76 73 
   8   0   0   0   0   0   0   0   0   0   0   0   0   0   0   0   0   0   0   0   6   0   5   0   0   0   0   0   0   0   0   3 83 75 73 
   7   0   0   0   0   0   0   0   0   0   0   0   0   0   0   0   0  10   0   0   0   0   0   0   0   9   0   0   0   0   0   3 86 74 69 
  10   0   0  10   0   0   0   0   0   0   6   0   0   0   0   0   0   0   0   0   0   5   0   0   0   0   0   0   0   0   0   5 94 87 86 85 82 
   3   0   0   0   7   0   0   0   0   0   0   0   0   9   3   0   4   0   0   0   0   0   0   0   0   0   0   3   0   0   0   4 87 83 81 75 
   2   0   9   4   5   0  10   0   0   0   0   0   0   0   0   0   0   0   9   0   0   0   0   0   0   0   0   0   7   0   8   4 91 89 82 81 
  10   8   0   0   0   5   0   0   0   0   0   0   0   0   0   0   0   0   0   0   0   0   0   0   0   0   4  10   0   0   0   4 89 88 84 81 
   5   0   0   0   0   0   0   0   0   0   0   0   0   0   7   8   7   0   0   0   0   0   0   0   3   0   4   0   0   5   0   3 92 85 74 
   1   6   0   0   0   0   0   0   0   6   0   5   6   0   9   4   0   0   0   0   0   0   0   0   0   0   5   0   0   0   0   3 83 81 75 
   5   0   5   0   0   0   0   0   0   0   0   0   0   0   0   0   0   0   0   0  10   0   0   0   0   0   6   0   0   0  10   2 83 74 
   1   0   0   5   0   0   0   7   0   0   0   0   0   0   0   0   0   6   0   0   0   0   0   0   0   0   4   0   0   0   0   1 73 
   6   0   0   0   0   0   0   0   0   0   0   7   7   0   0   0   4   0   0   0   0   0   0   0   0   0   0   0   0   0   0   2 88 82 
   4   0   0   7   6   0   0   0   0   0   0   0   0   0   0   0   8   0   0   4   0   0   0   0   0   0   0   0   0   0   0   2 89 81 
  10   0   0   0   0   6   0   0   0   6   0   0   0   0   0   0   0   0   7   7   0   0   0   0   0   0  10   0   0   0   0   2 91 86 
   7   0   0   0   0   0   0   0   0   0   0   0   0   0   0   0   0   0   0   0   0   0   0   0   0  10   0   6   3   5   0   2 84 81 
   9   0   8   0   0   0   0   0   0   0   0   0   4   0   0   0   0   0   5   0   0   0   0   0   0   0   0   0   0   0   4   1 74 
   1   5   0   0   0   0   0   0   0   0   0   0   0   0   0   0   9   0   0   0   0   0   0   0   0   0   0   0   0   6   0   1 81 
   7   0   0   0   0   8   6   0   0   9   0   0   0   0   0   6   4   0   0   0   0   0   0   0   0   0  10   0   0   0   0   1 82 
   5   0   0   7   0   0   9   0   0   0   0   0   0   0   8   0   0   0   0   0   0   5   0   0   0   0   0   0   0   0   0   1 83 
   9   0   3   0   0   4   0   0   0   0   0   0   0   0   9   0   0   0   0   0  10   0   0   0   0   0   0   0   0   0   0   1 81 
   9   0   4   0   0   7   0   0   0   0   7   0   0   0   0   0   0   0   9   0   0   0   0   0   7   0   5   0   0   0   0   1 89 
   6   0   0   0   0   9   2   0   0   0   0   0   0   0   6   0   0   0   0   0   0   0   0   0   0   0   0   0   0   0   0   1 82 
   5   0   0   0   0   0   0   0   0   0   0   0   0   0   0   0   0   8   0   0   0   8   0   0   0   0   0   6   0   0   0   1 84 
  10   0   0   9   0   0   0   0   5   0   0   0   0   0   0   0   0   0   0   0   0   0   4   0   0   0   0  10   0   0   0   1 102
  10   4   0   0   0   0   0   0   0   0   0   0   0   0   0   0   0   0   9   0   0   0   0   0   0   0   6   0   0   0   0   1 102
   4   0   0   0   0   0   0   0   0   0   0   0   0   0   0   3   0   0   0   0   0   0   0   0   0   0   0   0   0   8   0   1 102
   7   0   0   0   0   0   0   7   0   0   0   0   0   0   0   0   0   0   0   0   9   0   0   0   0   0   0   0   0   0   0   1 102
  10   0   0   0   0  10   0   0   0   0   0   0   0   0   0   0   6   0   0   0   0   0   0   0   0   0   0   0   7   0   0   1 102
   8   0   0   0   0   0   5   0   7   0   0   0  10   0   0   0   5   0   0   0   5  10   0   0   0   0   0   0   4   0   0   1 102
   8   0   0   4   0   0   0   4   0   0   0   7   0   0   0   0   0   0   6   6   0   0   0   0   0   0   0   0   7  10   0   1 102
   7   0   0   0   0   0   0   0   0   0   0   0   0   0   4   0   0   0   0   0   0   0   0   0   0   0   0   0   0   0   4   1 102
   7   0   0   6   7   0   0   0   0   0   0   0   0   0   0   0   0   7   0   0   0   0   0   0   0   0   4   0   6   0   0   1 102
   8   0   9   0   0   0   0   0   0   0   8   0   0   7   0   0   0   0   0   0   0   0   0   9   0   0   9   0   0   0   0   1 102
   2   0   0   0   0   6   0   0   0   0   0   5   0   0   0   0   0   0   0   0   0   0   5   0   0   0   0   0   0   0   0   1 102
   1   0   7   0   0   0   0   4   0   0   0   0   0   0   7   0   0   0   0   0   0   0   0   0   0   0   0   0   0   0   0   1 102
   7   0   0   0   0   0   0   6   0   0   0   0   0   0   0   0   0   0   4   0   0   0   0   0   0   0   0   0   0   0   0   1 102
   6   0   0   0   0   5   0   8   0   0   0   0   0   0   0   0   0   0   0   0   0   0   8   0   0   0   0   0   0   0   0   1 102
   7   0   0   0   0   0   0   0   0   0   0   0   0   5   0   0   0   0   0   0   0   0   0   0   0   0   0   0   0   0   0   1 102
   8   0   0   0   0   0   0   0   0   0   5   0   0   0   9   0   0   0   0   0   0   0   0   0   0   0   0   0   0   0   0   1 102
   9   0   9   0   0   5   5   0   0   0   0   0   0   8   0   0   0   0   0   0   0   0   0   0   0   0   0   0   0   0   7   1 102
   6   0   0   0   3   5   0   0   0   0   0   0   0   0   0   7   0   0   0   0   0   0   0   0   0   0   0   0   0   6   0   1 102
   6   0   0   0   0   7   0   0   0   6   0   0   0   0   0   0   0   0   0   0   5   0   0   0   0   0   0   6   0   0   7   1 102
   8   0   0   0   0   0   0   0  10   0   0   0   5   0   0   0   0   0   0   0   0   0   0   0   0   0   0   0   0   0   0   1 102
   8   0   0   0   0   0   9   0   0   0   0   0   0   0   0   5   0   6   5   0   0   0   0   0   8   0   0   0   0   0   0   1 102
   0   0   0   0   0   0   0   0   0   0   0   0   0   0   0   0   0   0   0   0   0   0   0   0   0   0   0   0   0   0   0   0 
